; number of variables :25
; number of clauses   :100
; each clause has 3 conjuncts
(set-logic QF_UF)
(declare-const var1 Bool)
(declare-const var2 Bool)
(declare-const var3 Bool)
(declare-const var4 Bool)
(declare-const var5 Bool)
(declare-const var6 Bool)
(declare-const var7 Bool)
(declare-const var8 Bool)
(declare-const var9 Bool)
(declare-const var10 Bool)
(declare-const var11 Bool)
(declare-const var12 Bool)
(declare-const var13 Bool)
(declare-const var14 Bool)
(declare-const var15 Bool)
(declare-const var16 Bool)
(declare-const var17 Bool)
(declare-const var18 Bool)
(declare-const var19 Bool)
(declare-const var20 Bool)
(declare-const var21 Bool)
(declare-const var22 Bool)
(declare-const var23 Bool)
(declare-const var24 Bool)
(declare-const var25 Bool)
(assert (and
  (or var14 var25 var1)
  (or var18 var23 var22)
  (or var3 var24 var12)
  (or var22 var22 var9)
  (or var16 var22 var1)
  (or var2 var10 var4)
  (or var1 var20 var9)
  (or var21 var5 var17)
  (or var22 var19 var6)
  (or var9 var10 var7)
  (or var9 var3 var12)
  (or var12 var1 var16)
  (or var2 var5 var18)
  (or var14 var1 var8)
  (or var10 var4 var2)
  (or var12 var10 var21)
  (or var14 var21 var12)
  (or var1 var1 var5)
  (or var10 var18 var4)
  (or var7 var17 var8)
  (or var9 var4 var10)
  (or var23 var23 var10)
  (or var17 var7 var24)
  (or var16 var6 var3)
  (or var15 var7 var2)
  (or var4 var2 var18)
  (or var20 var21 var7)
  (or var23 var16 var1)
  (or var9 var14 var16)
  (or var12 var21 var4)
  (or var25 var21 var9)
  (or var16 var8 var3)
  (or var14 var21 var20)
  (or var24 var9 var10)
  (or var4 var9 var14)
  (or var14 var5 var3)
  (or var10 var21 var5)
  (or var13 var4 var22)
  (or var20 var15 var10)
  (or var13 var23 var23)
  (or var13 var14 var23)
  (or var15 var20 var17)
  (or var12 var6 var16)
  (or var5 var5 var22)
  (or var4 var17 var11)
  (or var16 var19 var8)
  (or var2 var21 var10)
  (or var17 var23 var7)
  (or var25 var21 var20)
  (or var17 var14 var10)
  (or var21 var15 var20)
  (or var25 var20 var22)
  (or var13 var22 var9)
  (or var6 var13 var1)
  (or var21 var7 var17)
  (or var20 var18 var17)
  (or var6 var12 var24)
  (or var7 var6 var7)
  (or var20 var9 var16)
  (or var5 var3 var8)
  (or var6 var23 var24)
  (or var1 var15 var2)
  (or var11 var14 var22)
  (or var16 var7 var23)
  (or var20 var15 var23)
  (or var10 var9 var16)
  (or var3 var10 var5)
  (or var21 var19 var17)
  (or var23 var21 var14)
  (or var1 var3 var13)
  (or var24 var22 var24)
  (or var25 var10 var9)
  (or var20 var6 var24)
  (or var24 var10 var9)
  (or var18 var18 var21)
  (or var15 var3 var14)
  (or var2 var19 var17)
  (or var15 var6 var18)
  (or var19 var9 var1)
  (or var22 var20 var13)
  (or var18 var20 var9)
  (or var23 var15 var8)
  (or var7 var23 var10)
  (or var4 var24 var17)
  (or var25 var5 var21)
  (or var13 var15 var2)
  (or var15 var16 var13)
  (or var2 var13 var2)
  (or var22 var15 var18)
  (or var17 var16 var24)
  (or var5 var12 var22)
  (or var13 var20 var5)
  (or var18 var23 var5)
  (or var11 var2 var6)
  (or var17 var22 var9)
  (or var1 var23 var12)
  (or var23 var9 var18)
  (or var1 var13 var9)
  (or var9 var24 var19)
  (or var9 var16 var11)
  ))
(check-sat)
(get-model)
(exit)